




Route 1 : 20 22 24 27 30 29 6 31 32 33 35 37 38 39 36 34 28 26 23 25 9 13 17 18 19 15 16 14 12 11 10 8 21 
Route 2 : 67 63 69 66 62 74 72 61 64 68 65 49 55 54 53 56 58 60 59 57 40 44 46 41 42 45 51 50 52 47 43 48 
Route 3 : 93 5 75 2 1 99 100 97 92 94 95 98 7 3 4 89 91 88 84 83 82 85 71 70 73 80 79 76 81 78 77 96 87 86 90 